c A | B | C | (¬A ∨ B ∨ C) ∧ (A ∨ ¬C)
c T | T | T | T
c T | T | F | T
c T | F | T | T
c T | F | F | F
c F | T | T | F
c F | T | F | T
c F | F | T | F
c F | F | F | T
c
c 1, 2, 3
c 1, 2, -3
c 1, -2, 3
c -1, 2, -3
c -1, -2, -3

p cnf 3 2
1 -3 0
2 3 -1 0
